# Solution for model Master problem
# Objective value = 2.4959999866666603e+03


X_4_6 1
X_5_6 1

X_0_10 1
X_1_14 1
X_3_14 1
X_2_16 1


X_6_6 1

theta 2.4959999866666603e+03
A0_0 0
A0_1 0
A0_2 0
A0_3 0
B0_0 1.4999997777777411e+01
B0_1 7
B0_2 17
B0_3 7
AA0 0
BB0 4.5999997777776734e+01
